c Lingeling SAT Solver
c 
c Version ala b02aa1a04343558c4252b5f4a723be021964f652
c 
c Copyright (C) 2010-2012 Armin Biere JKU Linz Austria.
c All rights reserved.
c 
c released Sat Oct 13 14:05:26 CEST 2012
c compiled Sat Feb 16 02:48:12 EST 2013
c 
c gcc (Debian 4.4.5-8) 4.4.5
c -Wall -O3 -DNLGLOG -DNDEBUG -DNCHKSOL -DNLGLPICOSAT 
c Linux greencar2 2.6.32-5-amd64 x86_64
c 
c reading input file pb_300_10.cnf
c no embedded options
c found 'p cnf 346991 1095281' header
c read 346991 variables, 1095281 clauses, 2282755 literals in 0.0 seconds
c
c feature vars 346991
c feature lits.total 2282755
c feature lits.pos 1211639
c feature lits.neg 1071116
c feature clauses.total 1095281
c feature clauses.unit 127375
c feature clauses.bin 769938
c feature clauses.trn 195868
c feature clauses.lrg 2100
c feature cog.val.min 1
c feature cog.val.avg 154626
c feature cog.val.max 337228
c feature cog.var.min 1
c feature cog.var.avg 173496
c feature cog.var.max 346990
c
c
c --abstime=0
c --acts=2
c --actavgmax=120
c --actstdmin=20
c --actstdmax=80
c --agile=23
c --bias=2
c --block=1
c --blkrtc=0
c --blkclslim=2000
c --blkocclim=2000
c --blkmaxeff=2147483647
c --blkmineff=10000000
c --blkreleff=20
c --card=0
c --cce=3
c --ccemaxeff=100000000
c --ccemineff=5000000
c --ccereleff=3
c --check=0
c --cgrclsr=1
c --cgrmaxority=20
c --cgrmaxeff=8000000
c --cgrmineff=200000
c --cgreleff=1
c --cgrexteq=1
c --cgrextand=1
c --cgrextunits=1
c --cgrextite=1
c --cgrextxor=1
c --cliff=1
c --cliffreleff=8
c --cliffmineff=10000000
c --cliffmaxeff=100000000
c --compact=0
c --decompose=1
c --defragint=10000000
c --defragfree=50
c --elim=1
c --elmrtc=0
c --elmblk=1
c --elmclslim=1000
c --elmocclim=1000
c --elmaxeff=100000000
c --elmineff=5000000
c --elmreleff=10
c --sleeponabort=0
c --exitonabort=0
c --flipping=1
c --flipint=2
c --flipdur=50
c --fliptop=1
c --force=0
c --gauss=1
c --gaussextrall=1
c --gaussmaxor=20
c --gaussexptrn=1
c --gaussmaxeff=50000000
c --gaussmineff=2000000
c --gaussreleff=2
c --gluescale=2
c --gluekeep=0
c --inprocessing=1
c --cintinc=10000
c --irrlim=20
c --lift=1
c --lftmaxeff=20000000
c --lftmineff=500000
c --lftreleff=6
c --lhbr=1
c --lkhd=1
c --clim=-1
c --mocint=1000
c --move=2
c --log=-1
c --otfs=1
c --phase=0
c --phaseneginit=0
c --plain=0
c --probe=1
c --prbasicmaxeff=100000000
c --prbasicmineff=1000000
c --prbasicreleff=10
c --prbasic=1
c --prbasicroundlim=9
c --queuemergelim=10000
c --queuefactor=833
c --queueinc=20
c --rmincpen=4
c --seed=0
c --smallirr=90
c --smallve=1
c --smallvevars=12
c --randec=1
c --randecint=1000
c --redfixed=0
c --redlbound=0
c --redlexpfac=10
c --redldoutfac=0
c --redloutinc=10000
c --redlinit=1000
c --redlinc=1000
c --redinoutinc=100
c --redlmininc=10
c --redlmaxinc=200
c --redlminrel=10
c --redlmaxrel=300
c --redlminabs=500
c --redlmaxabs=1000000
c --reduce=1
c --restart=2
c --restartint=5
c --rstinoutinc=110
c --simplify=1
c --simpdelay=100
c --simpen=4
c --sizepen=1000000
c --sizemaxpen=3
c --sortlits=0
c --syncint=111111
c --termint=122222
c --ternres=1
c --ternresrtc=0
c --trnrmineff=4000000
c --trnrmaxeff=40000000
c --trnreleff=10
c --transred=1
c --trdmineff=100000
c --trdmaxeff=2000000
c --trdreleff=10
c --unhide=1
c --unhdextstamp=1
c --unhdhbr=0
c --unhdmaxeff=20000000
c --unhdmineff=1000000
c --unhdreleff=4
c --unhdlnpr=3
c --unhdroundlim=5
c --verbose=1
c --witness=1
c [limits] no conflict limit
c [limits] simplification delayed by 100 to 100 conflicts
c 
c  seconds         irredundant          redundant clauses agility   height
c          variables clauses conflicts large binary ternary    glue         MB
c 
c *    0.0  199168   854760         0       0      0     0  77  0.0   0.0   76
c [cut-width] 290706, max 425386, min4 217188 at 75%, min10 38400 at 88%
c [decision-order] bias 1, old 1
c [queue-schedule-all-variables]
c s    0.0  199168   854760         0       0      0     0  77  0.0   0.0   76
c [simplification-1] limit hit at 101 conflicts
c [simplification-1] simplification penalty of 4
c [ternres-1] limit 4000000 with penalty 0 = 0 + 0
c [ternres-1] all 199168 free variables schedulable
c [ternres-1] 0 ternary resolvents (0 bin, 0 trn)
c [ternres-1] 114953 variables remain 58% (84215 retained)
c [gauss-1] limit 2000000 penalty 0 = 0 + 0
c [gauss-1] extracted 156491 xors of average arity 2.0
c [gauss-1] connected 312983 occurrences of 137861 variables (average 2.3)
c [gauss-1] limit 2000000 penalty 0 = 0 + 0
c d    1.1   93986   440448       101      98      3     0  26  3.9  84.6   35
c [gauss-1] exported 0 unary, 3 binary and 0 ternary equations
c G    1.1   93986   440448       101      98      3     0  26  3.9  84.6   35
c [basicprobe-1] limit 1000000 penalty 0 = 0 + 0
c [basicprobe-1-0] 4826 probes remain 5% after last round
c [basicprobe-1-0] 1 units = 1 failed (100%) + 0 lifted (0%)
c [basicprobe-1-0] removed 1 variables, found 2080 hbrs
c p    1.3   93985   440448       101      98   2083     0  26  3.9  84.6   42
c [cgrclsr-1] limit 200000 penalty 0 = 0 + 0
c [cgrclsr-1] all 93985 free variables schedulable
c [cgrclsr-1] fully completed congruence closure
c [lift-1] limit 500000 with penalty 0 = 0 + 0
c [lift-1] using 93985 probes 100%
c [lift-1] 93964 variables remain 100% (21 retained)
c [cliff-1] limit of 10000000 steps penalty 0 = 0 + 0
c [cliff-1] failed 1, lifted 0
c K    2.0   93979   440443       101      98   6333     0  26  3.9  84.6   43
c [unhide-1] limit 1000000 with penalty 0 = 0 + 0
c [unhide-1-1] 0 units, 0 failed, 50491 tauts, 0 hbrs, 129 literals
c u    2.3   93979   389922       101      94   6327     4  26  3.9  84.6   43
c [transred-1] limit 100000 with penalty 0 = 0 + 0
c t    2.3   93979   389921       101      94   6327     4  26  3.9  84.6   43
c [block-1] scheduling all variables this time
c [block-1] scheduled 93979 variables 100%
c [block-1] limit of 10000000 steps penalty 0 = 0 + 0
c [block-1] fully completed blocked clause elimination
c [block-1] transition to [ all 0 rem 0 ] state
c [block-1] eliminated 5100 blocked clauses
c k    2.5   93979   384821       101      94   6327  5104  26  3.9  84.6   35
c [cce-1] scheduling all variables this time
c [cce-1] limit of 10000000 steps penalty 0 = 0 + 0
c [cce-1] incomplete covered clause elimination 88830 not tried 95%
c [cce-1] transition to [ all 1 rem 1 ] state
c [cce-1] eliminated 183 covered clauses
c E    3.0   93948   384638       101      94   9616  5100  26  3.9  84.6   35
c [elim-1] scheduling all variables this time
c [elim-1] scheduled 93948 variables 100%
c [elim-1] limit of 5000000 steps penalty 0 = 0 + 0
c [elim-1] incomplete variable elimination 78560 not tried 84%
c [elim-1] transition to [ all 1 rem 1 ] state
c [elim-1] eliminated 7438 = 8% variables out of 93948
c e    4.0   86510   379485       101      83   2596   640  26  3.9  84.6   35
c [phase-1] phase bias: 4769 positive 9%, 45854 negative 91%
c [simplification-1] removed 112658 variables 56%
c [simplification-1] limit increments divided by 29
c [simplification-1] arithmetic increase of conflict limit interval by 344
c [simplification-1] new irredundant limit 3688553
c [simplification-1] new conflict limit 445
c [simplification-1] simplification penalty reduced to 3
c R    4.1   86510   379485       167     128   2599   657  17  3.6  57.0   42
c R    4.2   86510   379485       409     308   2636   681   6  3.6  56.3   42
c [simplification-2] limit hit at 446 conflicts
c [simplification-2] simplification penalty of 3
c [ternres-2] limit 2000000 with penalty 1 = 1 + 0
c [ternres-2] 49939 schedulable variables 58%
c [ternres-2] 3 ternary resolvents (0 bin, 3 trn)
c [ternres-2] 27189 variables remain 31% (59321 retained)
c T    4.2   86510   379485       446     326   2645   692   6  3.5  51.5   43
c [gauss-2] limit 2000000 penalty 0 = 0 + 0
c [gauss-2] extracted 612 xors of average arity 3.0
c [gauss-2] connected 1834 occurrences of 1351 variables (average 1.4)
c [gauss-2] limit 2000000 penalty 0 = 0 + 0
c [gauss-2] fully completed
c [gauss-2] exported 0 unary, 0 binary and 0 ternary equations
c G    4.4   86510   379485       446     326   2645   692   6  3.5  51.5   35
c d    4.6   86509   379485       446     326   2643   691   6  3.5  51.5   35
c [basicprobe-2] limit 1000000 penalty 0 = 0 + 0
c [basicprobe-2-0] 5104 probes remain 6% after last round
c [basicprobe-2-0] 2 units = 2 failed (100%) + 0 lifted (0%)
c [basicprobe-2-0] removed 8 variables, found 1099 hbrs
c p    4.6   86501   379485       446     326   3742   690   6  3.5  51.5   42
c [cgrclsr-2] limit 100000 penalty 1 = 1 + 0
c [cgrclsr-2] all 86501 free variables schedulable
c [cgrclsr-2] fully completed congruence closure
c [lift-2] limit 250000 with penalty 1 = 1 + 0
c [lift-2] using 86484 probes 100%
c [lift-2] 86473 variables remain 100% (28 retained)
c [cliff-2] limit of 10000000 steps penalty 0 = 0 + 0
c [cliff-2] failed 2, lifted 1
c K    5.3   86485   379445       446     326   4645   690   6  3.5  51.5   42
c [unhide-2] limit 1000000 with penalty 0 = 0 + 0
c [unhide-2-2] 0 units, 0 failed, 1147 tauts, 0 hbrs, 170 literals
c u    5.5   86485   379349       446     318   3453   685   6  3.5  51.5   42
c [transred-3] limit 118040 based on 944321 irredundant literals
c t    5.5   86485   379346       446     318   3453   685   6  3.5  51.5   42
c [block-2] scheduling all variables this time
c [block-2] scheduled 86485 variables 100%
c [block-2] limit of 10000000 steps penalty 0 = 0 + 0
c [block-2] fully completed blocked clause elimination
c [block-2] transition to [ all 0 rem 0 ] state
c [block-2] eliminated 0 blocked clauses
c [cce-2] 83856 variables 97% will be scheduled this time
c [cce-2] limit of 10000000 steps penalty 0 = 0 + 0
c [cce-2] 83409 variables 96% remain to be tried next time
c [cce-2] transition to [ all 0 rem 1 ] state
c [cce-2] eliminated 414 covered clauses
c E    6.2   86471   378932       446     318   4468   685   6  3.5  51.5   35
c [elim-2] 78512 variables 91% will be scheduled this time
c [elim-2] scheduled 78512 variables 91%
c [elim-2] limit of 5000000 steps penalty 0 = 0 + 0
c [elim-2] 68462 variables 79% remain to be tried next time
c [elim-2] transition to [ all 0 rem 1 ] state
c [elim-2] eliminated 878 = 1% variables out of 86471
c e    7.2   85593   378389       446     312   2916   685   6  3.5  51.5   35
c [phase-2] phase bias: 440 positive 97%, 12 negative 3%
c [simplification-2] removed 917 variables 1%
c [simplification-2] no reduction of limit increments
c [simplification-2] arithmetic increase of conflict limit interval by 10000
c [simplification-2] new irredundant limit 3688553
c [simplification-2] new conflict limit 10790
c [simplification-2] simplification penalty reduced to 2
c R    7.5   85593   378389       976     726   2957   749   9  3.6  76.7   43
c 
c  seconds         irredundant          redundant clauses agility   height
c          variables clauses conflicts large binary ternary    glue         MB
c 
c -    7.7   85593   378389      1391     508   3002   818   3  3.6  86.0   43
c i    7.9   85592   378388      2024     999   3055   898   5  3.6  81.8   43
c R    7.9   85591   378388      2282    1247   3059   903   6  4.0  83.8   43
c -    8.6   85591   378388      4504    1545   3217  1144   4  4.9  79.2   43
c R    8.8   85591   378388      5198    2195   3224  1179   7  5.4  83.7   43
c i    9.1   85590   378387      6031    2877   3282  1263   3  5.2  82.9   43
c -    9.9   85590   378387      8554    2502   3421  1492   7  5.1  79.2   43
c i   10.4   85589   378386     10431    4207   3483  1584   5  5.6  77.9   43
c [simplification-3] limit hit at 10790 conflicts
c [simplification-3] simplification penalty of 2
c [ternres-3] limit 4000000 with penalty 0 = 0 + 0
c [ternres-3] 26905 schedulable variables 31%
c [ternres-3] 193 ternary resolvents (1 bin, 192 trn)
c [ternres-3] fully completed ternary resolution
c T   10.5   85589   378386     10790    4558   3484  1783   7  5.7  77.2   44
c [gauss-3] limit 1000000 penalty 1 = 1 + 0
c [gauss-3] extracted 295 xors of average arity 3.0
c [gauss-3] connected 879 occurrences of 723 variables (average 1.2)
c [gauss-3] limit 1000000 penalty 1 = 1 + 0
c [gauss-3] fully completed
c [gauss-3] exported 0 unary, 0 binary and 0 ternary equations
c G   10.7   85589   378348     10790    4557   3484  1783   7  5.7  77.2   36
c d   10.9   85573   378344     10790    4551   3456  1776   7  5.7  77.2   36
c [basicprobe-3] limit 1000000 penalty 0 = 0 + 0
c [basicprobe-3-0] 4695 probes remain 5% after last round
c [basicprobe-3-0] 10 units = 10 failed (100%) + 0 lifted (0%)
c [basicprobe-3-0] removed 11 variables, found 2016 hbrs
c p   10.9   85562   378344     10790    4551   5472  1761   7  5.7  77.2   43
c [cgrclsr-3] limit 118085 based on 944685 irredundant literals
c [cgrclsr-3] all 85562 free variables schedulable
c [cgrclsr-3] fully completed congruence closure
c [cgrclsr-3] removed 1 variables
c C   11.2   85561   378241     10790    4550   5368  1759   7  5.7  77.2   36
c [lift-3] limit 135668 with penalty 2 = 2 + 0
c [lift-3] using 85533 probes 100%
c [lift-3] 85528 variables remain 100% (33 retained)
c [cliff-3] limit of 10000000 steps penalty 0 = 0 + 0
c [cliff-3] failed 2, lifted 0
c K   11.7   85559   378241     10790    4550   5844  1754   7  5.7  77.2   43
c [unhide-3] limit 1000000 with penalty 0 = 0 + 0
c [unhide-3-3] 1 units, 2 failed, 1991 tauts, 0 hbrs, 5176 literals
c u   11.9   85555   376283     10790    4501   5810  1723   7  5.7  77.2   43
c [transred-5] limit 904458 with penalty 0 = 0 + 0
c t   12.0   85555   376275     10790    4501   5804  1723   7  5.7  77.2   43
c [block-3] scheduling all variables this time
c [block-3] scheduled 85555 variables 100%
c [block-3] limit of 5000000 steps penalty 1 = 1 + 0
c [block-3] fully completed blocked clause elimination
c [block-3] transition to [ all 0 rem 0 ] state
c [block-3] eliminated 0 blocked clauses
c [cce-3] scheduling all variables this time
c [cce-3] limit of 10000000 steps penalty 0 = 0 + 0
c [cce-3] 82640 variables 97% remain to be tried next time
c [cce-3] transition to [ all 1 rem 1 ] state
c [cce-3] eliminated 312 covered clauses
c E   12.8   85507   375939     10790    4501  10910  1719   7  5.7  77.2   36
c [elim-3] scheduling all variables this time
c [elim-3] scheduled 85507 variables 100%
c [elim-3] limit of 5000000 steps penalty 0 = 0 + 0
c [elim-3] 62146 variables 73% remain to be tried next time
c [elim-3] transition to [ all 1 rem 1 ] state
c [elim-3] eliminated 522 = 1% variables out of 85507
c e   13.8   84985   375644     10790    4366   6211  1709   7  5.7  77.2   36
c [phase-3] phase bias: 7 positive 88%, 1 negative 12%
c [simplification-3] removed 604 variables 0%
c [simplification-3] no reduction of limit increments
c [simplification-3] arithmetic increase of conflict limit interval by 10000
c [simplification-3] new irredundant limit 3688553
c [simplification-3] new conflict limit 31134
c [simplification-3] simplification penalty reduced to 1
c R   14.1   84985   375644     11697    5243   6214  1735   5  6.3  79.5   44
c i   14.2   84984   375643     11896    5398   6230  1756   7  6.2  78.9   44
c i   14.2   84983   375642     11901    5401   6231  1756   7  6.2  78.9   44
c -   14.9   84983   375642     13787    3524   6330  1910   8  6.0  75.5   43
c i   15.0   84982   375641     14061    3778   6333  1923   8  6.0  75.7   43
c 
c  seconds         irredundant          redundant clauses agility   height
c          variables clauses conflicts large binary ternary    glue         MB
c 
c i   15.1   84981   375640     14389    4051   6352  1957  11  6.0  75.0   43
c i   16.0   84980   375639     17512    6835   6476  2154   9  5.9  72.7   44
c i   16.2   84979   375638     18081    7353   6495  2180   9  5.9  71.8   44
c i   16.7   84978   375637     19469    8623   6556  2225   8  5.9  70.1   44
c i   16.7   84977   375636     19615    8759   6560  2230   8  5.9  69.9   44
c -   16.8   84977   375636     19901    4509   6575  2247   8  5.9  69.5   43
c i   17.1   84976   375635     20695    5232   6607  2281   7  5.8  68.4   43
c i   18.3   84975   375635     25199    9502   6704  2405  11  5.9  64.8   44
c 0   18.3   84543   375635     25199    9502   6704  2405  11  5.9  64.8   44
c 
c  seconds         irredundant          redundant clauses agility   height
c          variables clauses conflicts large binary ternary    glue         MB
c 
c blkd: 3 bces, 5100 removed, 3312578 resolutions, 9136971 steps
c blkd: 5100 blocking literals 1%, 0 pure
c cces: 3 cces, 497 eliminated, 497 ate 100%, 0 abce 0%
c cces: 16788 probed, 1 lifted, 35 failed
c clff: 3 cliffs, 1 lifted, 5 failed
c clff: 7632 decisions, 30013363 steps
c clls: 1 sat, 0 simp, 0 freeze, 0 melt
c clls: 3378036 add, 0 assume,, 0 deref, 0 failed
c clls: 0 cassume, 0 mosat
c coll: 24 gcs, 0 rescored clauses
c cgrs: 3 count, 418152 esteps, 58793 csteps
c cgrs: 1 eqs, 0 units
c cgrs: 0 matched (0 ands 0%, 0 xors 0%, 0 ites 0%)
c cgrs: 0 simplified (0 ands 0%, 0 xors 0%, 0 ites 0%)
c cgrs: 1579 extracted (1393 ands 88%, 186 xors 12%, 0 ites 0%)
c dcps: 4 decompositions, 105200 equivalent 30%
c decs: 133712 decision, 134 random 0.100%
c decs: 31409 flipped 23.490% (in 144 phases)
c elms: 3 elims, 8838 eliminated 3%
c elms: 8838 small 100%, 0 large 0%
c elms: 36703 tried small, 8838 succeeded 24%, 27865 failed 76%
c elms: 0 subsumed, 0 strengthened, 0 blocked
c elms: 474701 copies, 320620 resolutions, 981708 ipos
c elms: 0 subchks, 0 strchks
c frcs: 0 computed, 24.1 - 75.9 average min-cut range
c gaus: 3 extractions, 157398 extracted, 2.0 size, 3 max
c gaus: exported 0 units, 3 binary and 0 ternary equations
c gaus: 0 gc, 10000062 steps, 5000031 extr 50%, 2243973 elim 22%
c glue: 5.9 avg, 2.4 scaled avg
c glue: 5 maxredglue=15 (0%)
c lift: 3 phases, 222 probed (74 level1 33%, 148 level2 67%)
c lift: 0 units, 0 equivalences, 0 implications
c hbrs: 21656 hbrs = 21656 trn 100% + 0 lrg 0%, 29 sub 0%
c lrnd: 25002 clauses, 14235 uips 57%, 21.9 length, 5.9 glue
c ints: 1023 luby (155167 steps), 0 inout (0 steps)
c mins: 546589 learned lits, 22% minimized
c move: moved 5597, 497 binary 9%, 5100 ternary 91%
c otfs: str 783 dyn (632 red, 151 irr) 197 drv 25%, 586 rst 75%
c otfs: sub 10 dyn (10 red, 0 irr)
c phas: 3 computed, 51134 set, 5216 pos (10%), 45918 neg (90%)
c prbs: 3 basic, 2702 probed, 13 failed, 0 lifted
c prps: 44195825 props, 250 props/dec
c prps: 76% srch, 24% simp, 0% lkhd
c psns: 3931593 searches, 319276 hits, 8% hit rate
c queu: 140574 new, 49434 del, 120 maximum priority
c queu: 91092 merged, 83984 collected, 11 gcs
c queu: 25785 deprioritized, 32.7 lines on average
c reds: 5 count, 0 reset, 5 acts 100%, 0 exp 0%
c reds: 5 arithmetic 100%, 5 double 100%
c rmbd: 40 removed, 1 red 2%
c rsts: 993 restarts 97%, 29 skipped 3%
c rsts: 120 kept 12.1% average 28.9%
c simp: 3 count (0 ilim 0%, 0 plim 0%, 3 clim 100%)
c trnr: 3 count, 1 bin, 195 trn, 8566182 steps
c tops: 148410 fixed 43%, 13 iterations
c trds: 6 transitive reductions, 18 removed, 0 failed
c trds: 698 nodes, 871 edges, 1132719 steps
c unhd: 3 count, 3 rounds, 5886370 steps
c unhd: 20 non-trivial sccs of average size 2.1
c unhd: 1 units, 1 bin, 0 trn, 0 lrg
c unhd: 2 failed, 2 stamp, 0 lits, 0 bin, 0 trn, 0 lrg
c unhd: 53629 tauts, 20 bin 0%, 1062 trn 2%, 26 lrg 0%
c unhd: 53629 tauts, 52521 stamp 98%, 1229 red 2%
c unhd: 0 hbrs, 0 trn 0%, 0 lrg 0%, 0 red 0%
c unhd: 5475 strd, 1 bin 0%, 14 trn 0%, 5460 lrg 100%, 5470 red 100%
c vars: 84543 remaining 24% and 262448 removed 76% out of 346991
c vars: 148410 fixed 43%, 8838 eliminated 3%, 105200 equivalent 30%
c vsts: 261417456 visits, 81% srch, 19% simp, 0% lkhd
c vsts: 6.3 search visits per propagation 8406.5 per conflict
c wchs: 28647001 pushed, 9012051 enlarged, 37 defrags
c 
c scaledglue  added       reduced       forcing      resolved     conflicts
c 
c all     22265 100     12500 100    266274 100     98093 100      9235 100
c 
c  0          0   0         0   0         0   0         0   0         0   0 
c  1        451   2       151   1     10784   4      3101   3       238   3 
c  2      10293  46      5036  40    213818  80<    64806  66<     6333  69<
c  3       7879  35<     4880  39<    32922  12     21797  22      1857  20 
c  4       2464  11      1605  13      6474   2      5902   6       563   6 
c  5        784   4       513   4      1598   1      1702   2       170   2 
c  6        270   1       218   2       483   0       564   1        57   1 
c  7         93   0        74   1       150   0       167   0        13   0 
c  8         18   0        16   0        29   0        36   0         3   0 
c  9          5   0         5   0         6   0         9   0         0   0 
c 10          2   0         2   0         2   0         2   0         0   0 
c 11          1   0         0   0         3   0         4   0         1   0 
c 12          0   0         0   0         0   0         0   0         0   0 
c 13          0   0         0   0         0   0         0   0         0   0 
c 14          0   0         0   0         0   0         0   0         0   0 
c 15          5   0         0   0         5   0         3   0         0   0 
c 
c avg             2.7           2.9           2.2           2.4           2.4
c std             1.0           1.0           0.6           0.8           0.8
c 
c 133712 decisions, 25199 conflicts, 1376.9 conflicts/sec
c 44195825 propagations, 2.4 megaprops/sec
c 18.3 seconds, 88.6 MB
c 
c    1.308   7% analysis
c    0.708   4% block
c    0.156   1% bump
c    0.000   0% card
c    1.460   8% cce
c    1.100   6% cliff
c    0.020   0% cutwidth
c    0.060   0% decide
c    0.000   0% force
c    1.640   9% gc
c    0.656   4% cgrclsr
c    0.720   4% decomp
c    0.372   2% defrag
c    3.012  16% elim
c    1.312   7% gauss
c    0.416   2% lift
c    0.232   1% mincls
c    0.116   1% phase
c    0.208   1% probe
c    0.040   0% reduce
c    0.224   1% restart
c    0.128   1% ternres
c    0.124   1% transred
c    0.704   4% unhide
c ==================================
c    0.032   0% preprocessing     0%
c   10.637  58% inprocessing    100%
c ==================================
c   10.669  58% simplifying
c    0.000   0% lookahead
c    7.628  42% search
c ==================================
c   18.301 100% all
c
s UNSATISFIABLE
